# Inputs
INPUT_USESVC=true
INPUT_AZUREDEVOPSPATH=ExecPipelineServiceConnectionId
INPUT_PIPELINE_ID=61
INPUT_BRANCH=develop
INPUT_EXECTYPE=run
INPUT_REASON=userCreated
INPUT_ONLYEXECUTION=false
# If this is true, the pipeline must accept these parameters; otherwise, variables are set.
INPUT_ISPARAMETER=true
# If INPUT_ISPARAMETER is true, this variable will pass parameters; otherwise, it will pass variables.
INPUT_PARAMETERS={'prueba':'prueba','prueba2':'prueba2'}

# Variables
SYSTEM_ACCESSTOKEN=CHANGEME
SYSTEM_TEAMFOUNDATIONCOLLECTIONURI=https://dev.azure.com/CHANGEME/
SYSTEM_TEAMPROJECT=CHANGEME

# Service ExecPipelineServiceConnectionId
ENDPOINT_AUTH_PARAMETER_ExecPipelineServiceConnectionId_ORGANIZATION=CHANGEME
ENDPOINT_AUTH_PARAMETER_ExecPipelineServiceConnectionId_PROJECT=CHANGEME
ENDPOINT_AUTH_PARAMETER_ExecPipelineServiceConnectionId_APITOKEN=CHANGEME
